NAME : in_house_7_20
TYPE : TSP
DIMENSION : 7
EDGE_WEIGHT_TYPE : EXPLICIT
EDGE_WEIGHT_FORMAT : UPPER_ROW
COMMENT : INVERSION_SHIFT=1
EDGE_WEIGHT_SECTION
32
11
30
36
9
15
14
31
11
35
35
30
24
12
34
5
6
2
31
30
17
